problems/csplib-prob015/SchursLemma-models/noch/O2/lingeling/model_1_2-3-11-solution000001.eprime-solution
language ESSENCE' 1.0

letting boxes_PartitionAsSet_ExplicitR6_ExplicitVarSizeWithDummy be
        [[1, 11, 12, 12, 12, 12, 12, 12, 12, 12, 12; int(1..11)], [2, 3, 9, 10, 12, 12, 12, 12, 12, 12, 12; int(1..11)],
         [4, 5, 6, 7, 8, 12, 12, 12, 12, 12, 12; int(1..11)]; int(1..3)]
