problems/csplib-prob015/SchursLemma-models/noch/O2/lingeling/model_1_2-3-11-solution000001.solution
language Essence 1.3

letting boxes be partition({1, 11}, {2, 3, 9, 10}, {4, 5, 6, 7, 8})
